unsat
(:added-eqs                   3153
 :arith-eq-adapter            69
 :arith-bound-propagations-lp 594
 :arith-branch                1860
 :arith-conflicts             1508
 :arith-cube-calls            876
 :arith-diseq                 1465
 :arith-fixed-eqs             906
 :arith-gcd-calls             3538
 :arith-gcd-conflict          21
 :arith-gomory-cuts           2416
 :arith-hnf-calls             10
 :arith-lower                 26771
 :arith-make-feasible         14135
 :arith-max-columns           107
 :arith-max-rows              62
 :arith-nla-propagate-bounds  4
 :arith-offset-eqs            435
 :arith-patches               3517
 :arith-patches-success       4
 :arith-upper                 21746
 :binary-propagations         32939
 :conflicts                   1517
 :decisions                   5775
 :del-clause                  2941
 :final-checks                3538
 :max-memory                  53.85
 :memory                      17.70
 :minimized-lits              81
 :mk-bool-var                 4627
 :mk-clause                   3028
 :mk-clause-binary            3188
 :num-allocs                  980852795
 :num-checks                  1
 :propagations                42513
 :restarts                    13
 :rlimit-count                579105
 :sls-bv-lookaheads           2468232
 :sls-bv-moves                36139
 :sls-bv-restarts             37
 :sls-ddfw-flips              42728.00
 :sls-ddfw-reinits            3
 :sls-ddfw-restarts           192
 :sls-ddfw-shifts             8.00
 :sls-num-guided-search       7
 :sls-repair-down             132934
 :sls-repair-up               144411
 :time                        5.89
 :total-time                  5.90)
